Route #1: 37 29 27 8 5 10 44
Route #2: 41 25 6 36
Route #3: 40 42 20 30 18 1
Route #4: 3 31 24 28 11 21 39 14 45 4
Route #5: 23 12 50 17 49 15 19 34 32 38 48
Route #6: 2 16 9 46 13 26 22
Route #7: 35 33 43 7 51 47
Cost 747
Time 0.083519
